c Result of efficient AIG-to-CNF conversion using package CNF
p cnf 284 907
2 3 -195 0
2 3 -12 0
2 3 -187 0
-2 -3 0
-2 12 187 195 0
-3 273 4 9 11 0
3 -273 0
3 -11 0
3 -9 0
3 -4 0
-4 263 264 5 7 0
4 -263 0
4 -7 0
4 -5 0
4 -264 0
-5 267 268 269 6 0
5 -6 0
5 -269 0
5 -267 0
5 -268 0
-6 265 266 0
6 -265 0
6 -266 0
-7 256 257 258 8 0
7 -8 0
7 -258 0
7 -256 0
7 -257 0
-8 259 260 261 262 0
8 -262 0
8 -261 0
8 -259 0
8 -260 0
-9 272 278 279 10 0
9 -10 0
9 -279 0
9 -272 0
9 -278 0
-10 275 276 277 0
10 -275 0
10 -277 0
10 -276 0
-11 270 271 274 0
11 -270 0
11 -274 0
11 -271 0
-12 14 158 0
-12 -13 14 0
-12 -235 14 0
12 -14 0
12 235 13 -158 0
-13 252 253 254 255 0
13 -255 0
13 -254 0
13 -252 0
13 -253 0
14 230 13 -15 0
-14 15 0
-14 -13 0
-14 -230 0
15 280 -16 0
15 -280 281 -137 0
-15 -280 -281 0
-15 280 16 0
-15 -280 137 0
16 281 -17 0
16 -281 -97 0
-16 -281 97 0
-16 281 17 0
17 282 -18 0
17 -282 -68 0
-17 -282 68 0
-17 282 18 0
18 283 -19 0
18 -283 -45 0
-18 -283 45 0
-18 283 19 0
19 -279 20 -39 0
19 279 20 -24 0
-19 -20 0
-19 -279 39 0
-19 279 24 0
-20 4 13 21 22 0
20 -22 0
20 -4 0
20 -21 0
20 -13 0
-21 275 276 277 278 0
21 -278 0
21 -277 0
21 -275 0
21 -276 0
-22 272 273 274 23 0
22 -23 0
22 -274 0
22 -272 0
22 -273 0
-23 270 271 0
23 -270 0
23 -271 0
-24 280 32 0
-24 -280 25 0
24 -280 -25 0
24 280 -32 0
25 281 -26 0
25 -281 -29 0
-25 -281 29 0
-25 281 26 0
26 282 -27 0
26 -282 -28 0
-26 -282 28 0
-26 282 27 0
27 -239 -283 0
27 -238 283 0
-27 238 283 0
-27 239 -283 0
28 -241 -283 0
28 -240 283 0
-28 240 283 0
-28 241 -283 0
29 282 -30 0
29 -282 -31 0
-29 -282 31 0
-29 282 30 0
30 -243 -283 0
30 -242 283 0
-30 242 283 0
-30 243 -283 0
31 -245 -283 0
31 -244 283 0
-31 244 283 0
-31 245 -283 0
32 281 -33 0
32 -281 -36 0
-32 -281 36 0
-32 281 33 0
33 282 -34 0
33 -282 -35 0
-33 -282 35 0
-33 282 34 0
34 -231 -283 0
34 -230 283 0
-34 230 283 0
-34 231 -283 0
35 -233 -283 0
35 -232 283 0
-35 232 283 0
-35 233 -283 0
36 282 -37 0
36 -282 -38 0
-36 -282 38 0
-36 282 37 0
37 -235 -283 0
37 -234 283 0
-37 234 283 0
-37 235 -283 0
38 -237 -283 0
38 -236 283 0
-38 236 283 0
-38 237 -283 0
39 280 -40 0
-39 -280 0
-39 40 0
40 281 -41 0
40 -281 -44 0
-40 -281 44 0
-40 281 41 0
41 282 -42 0
41 -282 -43 0
-41 -282 43 0
-41 282 42 0
42 -247 -283 0
42 -246 283 0
-42 246 283 0
-42 247 -283 0
43 -249 -283 0
43 -248 283 0
-43 248 283 0
-43 249 -283 0
44 -250 282 283 0
44 -251 282 -283 0
-44 -282 0
-44 251 -283 0
-44 250 283 0
45 -279 20 -61 0
45 279 20 -46 0
-45 -20 0
-45 -279 61 0
-45 279 46 0
-46 280 54 0
-46 -280 47 0
46 -280 -47 0
46 280 -54 0
47 281 -48 0
47 -281 -51 0
-47 -281 51 0
-47 281 48 0
48 282 -49 0
48 -282 -50 0
-48 -282 50 0
-48 282 49 0
49 -238 -283 0
49 -237 283 0
-49 237 283 0
-49 238 -283 0
50 -240 -283 0
50 -239 283 0
-50 239 283 0
-50 240 -283 0
51 282 -52 0
51 -282 -53 0
-51 -282 53 0
-51 282 52 0
52 -242 -283 0
52 -241 283 0
-52 241 283 0
-52 242 -283 0
53 -244 -283 0
53 -243 283 0
-53 243 283 0
-53 244 -283 0
54 281 -55 0
54 -281 -58 0
-54 -281 58 0
-54 281 55 0
55 282 -56 0
55 -282 -57 0
-55 -282 57 0
-55 282 56 0
56 -230 -283 0
56 -229 283 0
-56 229 283 0
-56 230 -283 0
57 -232 -283 0
57 -231 283 0
-57 231 283 0
-57 232 -283 0
58 282 -59 0
58 -282 -60 0
-58 -282 60 0
-58 282 59 0
59 -234 -283 0
59 -233 283 0
-59 233 283 0
-59 234 -283 0
60 -236 -283 0
60 -235 283 0
-60 235 283 0
-60 236 -283 0
61 280 -62 0
-61 -280 0
-61 62 0
62 281 -63 0
62 -281 -66 0
-62 -281 66 0
-62 281 63 0
63 282 -64 0
63 -282 -65 0
-63 -282 65 0
-63 282 64 0
64 -246 -283 0
64 -245 283 0
-64 245 283 0
-64 246 -283 0
65 -248 -283 0
65 -247 283 0
-65 247 283 0
-65 248 -283 0
66 282 -67 0
66 -251 -282 283 0
-66 282 67 0
-66 -282 -283 0
-66 251 -282 0
67 -250 -283 0
67 -249 283 0
-67 249 283 0
-67 250 -283 0
68 283 -69 0
68 -283 -83 0
-68 -283 83 0
-68 283 69 0
69 -279 20 -78 0
69 279 20 -70 0
-69 -20 0
-69 -279 78 0
-69 279 70 0
-70 280 74 0
-70 -280 71 0
70 -280 -71 0
70 280 -74 0
71 281 -72 0
71 -281 -73 0
-71 -281 73 0
-71 281 72 0
72 -282 -27 0
72 282 -38 0
-72 282 38 0
-72 -282 27 0
73 282 -28 0
73 -282 -30 0
-73 -282 30 0
-73 282 28 0
74 281 -75 0
74 -281 -77 0
-74 -281 77 0
-74 281 75 0
75 -282 -34 0
75 282 -76 0
-75 282 76 0
-75 -282 34 0
76 -229 -283 0
76 -228 283 0
-76 228 283 0
-76 229 -283 0
77 282 -35 0
77 -282 -37 0
-77 -282 37 0
-77 282 35 0
78 280 -79 0
-78 -280 0
-78 79 0
79 281 -80 0
79 -281 -81 0
-79 -281 81 0
-79 281 80 0
80 282 -31 0
80 -282 -42 0
-80 -282 42 0
-80 282 31 0
81 282 -43 0
81 -282 -82 0
-81 -282 82 0
-81 282 43 0
82 -251 -283 0
82 -250 283 0
-82 250 283 0
-82 251 -283 0
83 -279 20 -92 0
83 279 20 -84 0
-83 -20 0
-83 -279 92 0
-83 279 84 0
-84 280 85 0
-84 -280 89 0
84 -280 -89 0
84 280 -85 0
-85 281 87 0
-85 -281 86 0
85 -281 -86 0
85 281 -87 0
86 282 -57 0
86 -282 -59 0
-86 -282 59 0
-86 282 57 0
87 -282 -56 0
87 282 -88 0
-87 282 88 0
-87 -282 56 0
88 -228 -283 0
88 -227 283 0
-88 227 283 0
-88 228 -283 0
89 281 -90 0
89 -281 -91 0
-89 -281 91 0
-89 281 90 0
90 -282 -49 0
90 282 -60 0
-90 282 60 0
-90 -282 49 0
91 282 -50 0
91 -282 -52 0
-91 -282 52 0
-91 282 50 0
92 280 -93 0
92 -280 -96 0
-92 -280 96 0
-92 280 93 0
93 281 -94 0
93 -281 -95 0
-93 -281 95 0
-93 281 94 0
94 282 -53 0
94 -282 -64 0
-94 -282 64 0
-94 282 53 0
95 282 -65 0
95 -282 -67 0
-95 -282 67 0
-95 282 65 0
96 -251 281 282 283 0
-96 -283 0
-96 -282 0
-96 251 0
-96 -281 0
97 282 -98 0
97 -282 -117 0
-97 -282 117 0
-97 282 98 0
98 283 -99 0
98 -283 -108 0
-98 -283 108 0
-98 283 99 0
99 -279 20 -105 0
99 279 20 -100 0
-99 -20 0
-99 -279 105 0
-99 279 100 0
-100 280 101 0
-100 -280 104 0
100 -280 -104 0
100 280 -101 0
-101 281 102 0
-101 -281 33 0
101 -281 -33 0
101 281 -102 0
102 -282 -76 0
102 282 -103 0
-102 282 103 0
-102 -282 76 0
103 -227 -283 0
103 -226 283 0
-103 226 283 0
-103 227 -283 0
104 -281 -26 0
104 281 -36 0
-104 281 36 0
-104 -281 26 0
105 280 -106 0
105 -280 -107 0
-105 -280 107 0
-105 280 106 0
106 281 -29 0
106 -281 -41 0
-106 -281 41 0
-106 281 29 0
107 281 -44 0
-107 -281 0
-107 44 0
108 -279 20 -114 0
108 279 20 -109 0
-108 -20 0
-108 -279 114 0
-108 279 109 0
-109 280 110 0
-109 -280 113 0
109 -280 -113 0
109 280 -110 0
-110 281 111 0
-110 -281 55 0
110 -281 -55 0
110 281 -111 0
111 -282 -88 0
111 282 -112 0
-111 282 112 0
-111 -282 88 0
112 -226 -283 0
112 -225 283 0
-112 225 283 0
-112 226 -283 0
113 -281 -48 0
113 281 -58 0
-113 281 58 0
-113 -281 48 0
114 280 -115 0
114 -280 -116 0
-114 -280 116 0
-114 280 115 0
115 281 -51 0
115 -281 -63 0
-115 -281 63 0
-115 281 51 0
116 281 -66 0
-116 -281 0
-116 66 0
117 283 -118 0
117 -283 -127 0
-117 -283 127 0
-117 283 118 0
118 -279 20 -124 0
118 279 20 -119 0
-118 -20 0
-118 -279 124 0
-118 279 119 0
-119 280 120 0
-119 -280 123 0
119 -280 -123 0
119 280 -120 0
-120 281 121 0
-120 -281 75 0
120 -281 -75 0
120 281 -121 0
121 -282 -103 0
121 282 -122 0
-121 282 122 0
-121 -282 103 0
122 -225 -283 0
122 -224 283 0
-122 224 283 0
-122 225 -283 0
123 -281 -72 0
123 281 -77 0
-123 281 77 0
-123 -281 72 0
124 280 -125 0
124 -280 -126 0
-124 -280 126 0
-124 280 125 0
125 281 -73 0
125 -281 -80 0
-125 -281 80 0
-125 281 73 0
126 281 -81 0
-126 -281 0
-126 81 0
127 -279 20 -133 0
127 279 20 -128 0
-127 -20 0
-127 -279 133 0
-127 279 128 0
-128 280 129 0
-128 -280 132 0
128 -280 -132 0
128 280 -129 0
-129 -281 87 0
-129 281 130 0
129 -281 -87 0
129 281 -130 0
-130 282 131 0
-130 -282 112 0
130 -282 -112 0
130 282 -131 0
131 -224 -283 0
131 -223 283 0
-131 223 283 0
-131 224 -283 0
132 281 -86 0
132 -281 -90 0
-132 -281 90 0
-132 281 86 0
133 280 -134 0
133 -280 -135 0
-133 -280 135 0
-133 280 134 0
134 281 -91 0
134 -281 -94 0
-134 -281 94 0
-134 281 91 0
135 281 -95 0
135 -281 -136 0
-135 -281 136 0
-135 281 95 0
136 -251 282 283 0
-136 251 0
-136 -283 0
-136 -282 0
137 282 -138 0
137 -282 -151 0
-137 -282 151 0
-137 282 138 0
138 283 -139 0
138 -283 -145 0
-138 -283 145 0
-138 283 139 0
139 -279 20 -144 0
139 279 20 -140 0
-139 -20 0
-139 -279 144 0
-139 279 140 0
140 -280 -32 0
140 280 -141 0
-140 280 141 0
-140 -280 32 0
141 -281 -102 0
141 281 -142 0
-141 281 142 0
-141 -281 102 0
142 -282 -122 0
142 282 -143 0
-142 282 143 0
-142 -282 122 0
143 -223 -283 0
143 -222 283 0
-143 222 283 0
-143 223 -283 0
144 280 -25 0
144 -280 -40 0
-144 -280 40 0
-144 280 25 0
145 279 20 -147 0
145 -279 20 -146 0
-145 -20 0
-145 -279 146 0
-145 279 147 0
146 280 -47 0
146 -280 -62 0
-146 -280 62 0
-146 280 47 0
147 -280 -54 0
147 280 -148 0
-147 280 148 0
-147 -280 54 0
148 -281 -111 0
148 281 -149 0
-148 281 149 0
-148 -281 111 0
149 -282 -131 0
149 282 -150 0
-149 282 150 0
-149 -282 131 0
150 -222 -283 0
150 -221 283 0
-150 221 283 0
-150 222 -283 0
151 283 -152 0
-151 -283 0
-151 152 0
152 -279 20 -157 0
152 279 20 -153 0
-152 -20 0
-152 -279 157 0
-152 279 153 0
-153 -280 74 0
-153 280 154 0
153 -280 -74 0
153 280 -154 0
-154 -281 121 0
-154 281 155 0
154 -281 -121 0
154 281 -155 0
-155 -282 143 0
-155 282 156 0
155 -282 -143 0
155 282 -156 0
-156 220 283 0
-156 221 -283 0
156 -221 -283 0
156 -220 283 0
157 280 -71 0
157 -280 -79 0
-157 -280 79 0
-157 280 71 0
158 280 -159 0
158 -280 -180 0
-158 -280 180 0
-158 280 159 0
159 281 -160 0
159 -281 -174 0
-159 -281 174 0
-159 281 160 0
160 282 -161 0
160 -282 -167 0
-160 -282 167 0
-160 282 161 0
161 -283 -164 0
161 283 20 -162 0
-161 -283 164 0
-161 283 -20 0
-161 283 162 0
-162 -279 -280 0
-162 279 163 0
-162 -279 96 0
162 279 -163 0
162 -279 280 -96 0
-163 -280 93 0
-163 280 89 0
163 280 -89 0
163 -280 -93 0
164 -279 20 -166 0
164 279 20 -165 0
-164 -20 0
-164 -279 166 0
-164 279 165 0
-165 -280 106 0
-165 280 104 0
165 280 -104 0
165 -280 -106 0
166 280 -107 0
-166 -280 0
-166 107 0
167 283 -168 0
167 -283 -171 0
-167 -283 171 0
-167 283 168 0
168 -279 20 -170 0
168 279 20 -169 0
-168 -20 0
-168 -279 170 0
-168 279 169 0
-169 -280 115 0
-169 280 113 0
169 280 -113 0
169 -280 -115 0
170 280 -116 0
-170 -280 0
-170 116 0
171 -279 20 -173 0
171 279 20 -172 0
-171 -20 0
-171 -279 173 0
-171 279 172 0
-172 -280 125 0
-172 280 123 0
172 280 -123 0
172 -280 -125 0
173 280 -126 0
-173 -280 0
-173 126 0
174 282 -175 0
174 -282 -179 0
-174 -282 179 0
-174 282 175 0
175 -283 -19 0
175 283 -176 0
-175 283 176 0
-175 -283 19 0
176 -279 20 -178 0
176 279 20 -177 0
-176 -20 0
-176 -279 178 0
-176 279 177 0
-177 -280 134 0
-177 280 132 0
177 280 -132 0
177 -280 -134 0
178 280 -135 0
-178 -280 0
-178 135 0
179 283 -45 0
179 -283 -69 0
-179 -283 69 0
-179 283 45 0
180 281 -181 0
180 -281 -184 0
-180 -281 184 0
-180 281 181 0
181 282 -182 0
181 -282 -183 0
-181 -282 183 0
-181 282 182 0
182 283 -83 0
182 -283 -99 0
-182 -283 99 0
-182 283 83 0
183 283 -108 0
183 -283 -118 0
-183 -283 118 0
-183 283 108 0
184 282 -185 0
184 -282 -186 0
-184 -282 186 0
-184 282 185 0
185 283 -127 0
185 -283 -139 0
-185 -283 139 0
-185 283 127 0
186 283 -145 0
186 -283 -152 0
-186 -283 152 0
-186 283 145 0
-187 188 190 0
-187 -13 188 0
-187 -229 188 0
187 -188 0
187 229 13 -190 0
188 226 280 13 -189 0
-188 -226 0
-188 189 0
-188 -13 0
-188 -280 0
189 281 -97 0
189 -281 -137 0
-189 -281 137 0
-189 281 97 0
190 280 -191 0
190 -280 281 -194 0
-190 -280 -281 0
-190 280 191 0
-190 -280 194 0
191 281 -192 0
191 -281 -193 0
-191 -281 193 0
-191 281 192 0
192 282 -179 0
192 -282 -182 0
-192 -282 182 0
-192 282 179 0
193 282 -183 0
193 -282 -185 0
-193 -282 185 0
-193 282 183 0
194 282 -186 0
-194 -282 0
-194 186 0
-195 196 197 206 210 0
195 -197 0
195 -206 0
195 -196 0
195 -210 0
196 227 280 13 -180 0
-196 -227 0
-196 180 0
-196 -13 0
-196 -280 0
-197 198 201 0
-197 -13 198 0
-197 -228 198 0
197 -198 0
197 228 13 -201 0
198 231 13 -199 0
-198 199 0
-198 -13 0
-198 -231 0
199 280 -200 0
199 -280 281 -184 0
-199 -280 -281 0
-199 280 200 0
-199 -280 184 0
200 281 -174 0
200 -281 -181 0
-200 -281 181 0
-200 281 174 0
201 280 -202 0
201 -280 281 -205 0
-201 -280 -281 0
-201 280 202 0
-201 -280 205 0
202 281 -203 0
202 -281 -204 0
-202 -281 204 0
-202 281 203 0
203 282 -68 0
203 -282 -98 0
-203 -282 98 0
-203 282 68 0
204 282 -117 0
204 -282 -138 0
-204 -282 138 0
-204 282 117 0
205 282 -151 0
-205 -282 0
-205 151 0
206 233 13 -207 209 0
-206 -13 0
-206 -209 0
-206 -233 0
-206 207 0
-207 280 -281 192 0
-207 280 281 208 0
207 -280 0
207 -281 -192 0
207 281 -208 0
208 282 -167 0
208 -282 -175 0
-208 -282 175 0
-208 282 167 0
209 -280 -281 194 0
209 -280 281 193 0
-209 280 0
-209 -281 -194 0
-209 281 -193 0
-210 211 216 0
-210 -13 211 0
-210 -234 211 0
210 -211 0
210 234 13 -216 0
211 232 13 -212 215 0
-211 -13 0
-211 -215 0
-211 -232 0
-211 212 0
-212 280 -281 203 0
-212 280 281 213 0
212 -280 0
212 -281 -203 0
212 281 -213 0
213 -282 -18 0
213 282 -214 0
-213 282 214 0
-213 -282 18 0
214 283 -171 0
214 -283 -176 0
-214 -283 176 0
-214 283 171 0
215 -280 -281 205 0
215 -280 281 204 0
-215 280 0
-215 -281 -205 0
-215 281 -204 0
216 -280 -189 0
216 280 -217 0
-216 280 217 0
-216 -280 189 0
217 -281 -17 0
217 281 -218 0
-217 281 218 0
-217 -281 17 0
218 -282 -214 0
218 282 -219 0
-218 282 219 0
-218 -282 214 0
219 283 -164 0
219 -283 -168 0
-219 -283 168 0
-219 283 164 0
-284 0
2 0

